20
32.0
0 19 4.26 27.62
1 18 3.83 28.98
2 17 4.12 25.14
3 16 2.75 30.5
4 15 2.87 28.43
5 14 2.93 27.9
6 13 3.92 30.15
7 12 3.08 29.73
8 11 4.64 29.76
9 10 2.9 32.4
10 9 5.67 22.31
11 8 3.75 24.7
12 7 6.0 14.77
13 6 2.67 27.33
14 5 3.0 20.48
15 4 4.25 16.65
16 3 8.67 22.67
17 2 5.0 16.4
18 1 23.0 3.4
